nr = 4;
nc = 4;
ndefh = 4;
ndefv = 4;
r = 1;
s = 9;
defH = array2d(1..ndefh, 1..3,
       [ 1,10,4,
         5,14,3,  
         11,4,2,
         13,6,2
        ]);
defV = array2d(1..ndefv, 1..3,
       [ 
        1,6,2,
        2,11,2,
        3,8,3,
        12,4,2
        
        ]);
        
problem = array2d(1..nr, 1..nc,
          [
            1,1,1,1,
            1,1,1,0,
            0,0,1,1,
            1,1,0,1
            ]);